(declare-const term_to_project_onto Real)
(declare-const term_to_project_onto0 Real)
(assert (exists
         ((|z'?1| Int) (|v'?2| Int) (K?3 Int) (|v'?4| Int) (v?5 Int)
            (z?6 Int))
         (and (<= (- v?5) 0) (<= (- z?6) 0) (<= (+ z?6 -9) 0)
                (= (+ (- |v'?2|) K?3) 0)
                (or (and (= K?3 0) (= (- |v'?2|) 0))
                      (and (<= (+ (- K?3) 1) 0) (<= (+ |v'?2| -268435455) 0)
                             (<= (+ (- |v'?2|) 1) 0))) (<= (- K?3) 0)
                (<= (- |v'?2|) 0) (<= (+ (- |v'?2|) 268435455) 0)
                (is_int (/ |v'?2| 4)) (<= (- |v'?2|) 0)
                (= (+ |v'?4| (- |v'?2|)) 0) (= (+ |z'?1| (- z?6) -1) 0)
                (= term_to_project_onto0 (+ |z'?1| (- z?6)))
                (= term_to_project_onto (+ |v'?4| (- v?5))))))
(check-sat)
